\ LP format - for model browsing. Use MPS format to capture full model detail.
Minimize
  x_0 + x_1 + x_2 + x_3 + x_4 + x_5 + x_6 + x_7 + x_8 + x_9 + x_10 + x_11
   + x_12 + x_13 + x_14 + x_15 + x_16 + x_17 + x_18 + x_19 + x_20 + x_21
   + x_22 + x_23 + x_24 + x_25 + x_26 + x_27 + x_28 + x_29 + x_30 + x_31
   + x_32 + x_33 + x_34 + x_35 + x_36 + x_37 + x_38 + x_39 + x_40 + x_41
   + x_42 + x_43 + x_44 + x_45 + x_46 + x_47 + x_48 + x_49
Subject To
 const_0: x_0 >= 1
 const_1: x_1 >= 1
 const_2: x_2 >= 1
 const_3: x_3 >= 1
 const_4: x_4 >= 1
 const_5: x_5 >= 1
 const_6: x_6 >= 1
 const_7: x_7 >= 1
 const_8: x_8 >= 1
 const_9: x_9 >= 1
 const_10: x_10 >= 1
 const_11: x_11 >= 1
 const_12: x_12 >= 1
 const_13: x_13 >= 1
 const_14: x_14 >= 1
 const_15: x_15 >= 1
 const_16: x_16 >= 1
 const_17: x_17 >= 1
 const_18: x_18 >= 1
 const_19: x_19 >= 1
 const_20: x_20 >= 1
 const_21: x_21 >= 1
 const_22: x_22 >= 1
 const_23: x_23 >= 1
 const_24: x_24 >= 1
 const_25: x_25 >= 1
 const_26: x_26 >= 1
 const_27: x_27 >= 1
 const_28: x_28 >= 1
 const_29: x_29 >= 1
 const_30: x_30 >= 1
 const_31: x_31 >= 1
 const_32: x_32 >= 1
 const_33: x_33 >= 1
 const_34: x_34 >= 1
 const_35: x_35 >= 1
 const_36: x_36 >= 1
 const_37: x_37 >= 1
 const_38: x_38 >= 1
 const_39: x_39 >= 1
 const_40: x_40 >= 1
 const_41: x_41 >= 1
 const_42: x_42 >= 1
 const_43: x_43 >= 1
 const_44: x_44 >= 1
 const_45: x_45 >= 1
 const_46: x_46 >= 1
 const_47: x_47 >= 1
 const_48: x_48 >= 1
 const_49: x_49 >= 1
Bounds
Binaries
 x_0 x_1 x_2 x_3 x_4 x_5 x_6 x_7 x_8 x_9 x_10 x_11 x_12 x_13 x_14 x_15 x_16
 x_17 x_18 x_19 x_20 x_21 x_22 x_23 x_24 x_25 x_26 x_27 x_28 x_29 x_30 x_31
 x_32 x_33 x_34 x_35 x_36 x_37 x_38 x_39 x_40 x_41 x_42 x_43 x_44 x_45 x_46
 x_47 x_48 x_49
End
